#
sys.path.insert(0, './..')
import cdft 

molecule h2o {
C       0.0000  0.0000  0.0000
O       0.0000  0.0000  1.1282  
symmetry c1
}


set {
  basis cc-pvdz
  df_scf_guess false
  scf_type pk
  e_convergence 4 
  d_convergence 1
  maxiter 100
}



set reference uhf

set cdft {
  AOCC_FROZEN [1,0,0,0,0,0,0,0]
 cdft_exc_type core
  AVIR_FROZEN [2,0,0,0,0,0,0,0]
}


energy('noci')

