
memory 20 gb

import cdft

refdft                = -113.36252126784055#TEST
refocdft_singlet_spin = -93.749757027 #TEST
refocdft_triplet_spin = -93.731801672 #TEST

molecule{
0 1
C           -0.000000000000     0.000000000000    -0.642713037152
O            0.000000000000     0.000000000000     0.482188034714
}

set {
  basis def2-TZVP
  scf_type df
  df_basis_scf def2-tzvp-jkfit
  reference uks
  maxiter 100
  e_convergence 11
  d_convergence 6
}

set cdft {
  cdft_exc_type core
  roots_per_irrep [0,0,1,0]
  cdft_spin_adapt_ci false
  cdft_exc_method chp
}

set dft_functional B3LYP
energy('ocdft')

compare_values(refdft, get_variable("DFT ENERGY"),8, "DFT energy") #TEST
compare_values(refocdft_singlet_spin, get_variable("OCDFT SINGLET ENERGY"),8, "OCDFT singlet energy") #TEST
compare_values(refocdft_triplet_spin, get_variable("OCDFT TRIPLET ENERGY"),8, "OCDFT triplet energy") #TEST
